
Gurobi 13.0.2 (win64) logging started Thu Jul 23 16:20:15 2026

Set parameter LogFile to value "E:\codes\ExactEBRP\results\gf_gurobi_performance_recovery_round29\runs\stage2__moderate_seed4302__c3_replica__300s\external\native_logs\R.0.0.1.0.0.1.0.0.1_terminal_mip.gurobi.log"
Gurobi Optimizer version 13.0.2 build v13.0.2rc1 (win64 - Windows 10.0 (19045.2))

CPU model: 12th Gen Intel(R) Core(TM) i7-12700KF, instruction set [SSE2|AVX|AVX2]
Thread count: 12 physical cores, 20 logical processors, using up to 1 threads

Non-default parameters:
TimeLimit  2.6000066500000003e+01
MIPGap  0
MIPGapAbs  0
LogToConsole  0
Threads  1

Optimize a model with 11919 rows, 3378 columns and 67378 nonzeros (Min)
Model fingerprint: 0x6f478121
Model has 21 linear objective coefficients
Variable types: 1686 continuous, 1692 integer (1492 binary)
Coefficient statistics:
  Matrix range     [7e-03, 2e+04]
  Objective range  [7e-03, 1e+00]
  Bounds range     [7e-03, 1e+02]
  RHS range        [7e-03, 5e+04]

Presolve removed 4603 rows and 677 columns
Presolve time: 0.30s
Presolved: 7316 rows, 2701 columns, 43508 nonzeros
Variable types: 1338 continuous, 1363 integer (1208 binary)

Root relaxation: objective 6.921150e-03, 1504 iterations, 0.04 seconds (0.09 work units)

    Nodes    |    Current Node    |     Objective Bounds      |     Work
 Expl Unexpl |  Obj  Depth IntInf | Incumbent    BestBd   Gap | It/Node Time

     0     0    0.00692    0  119          -    0.00692      -     -    0s
     0     0    0.00692    0  113          -    0.00692      -     -    0s
     0     0    0.00692    0  155          -    0.00692      -     -    0s
     0     0    0.00692    0  154          -    0.00692      -     -    0s
     0     0    0.00692    0  184          -    0.00692      -     -    0s
     0     0    0.00692    0  232          -    0.00692      -     -    1s
     0     0    0.00692    0  197          -    0.00692      -     -    1s
     0     0    0.00692    0  169          -    0.00692      -     -    1s
     0     0    0.00692    0  177          -    0.00692      -     -    1s
     0     0    0.00692    0  223          -    0.00692      -     -    1s
     0     0    0.00692    0  223          -    0.00692      -     -    2s
     0     0    0.00692    0  224          -    0.00692      -     -    2s
     0     0    0.00692    0  224          -    0.00692      -     -    2s
     0     0    0.00692    0  261          -    0.00692      -     -    2s
     0     0    0.00692    0  224          -    0.00692      -     -    2s
     0     0    0.00692    0  224          -    0.00692      -     -    3s
     0     0    0.00692    0  200          -    0.00692      -     -    3s
     0     2    0.00692    0  200          -    0.00692      -     -    4s
    18     6    0.00726    3  205          -    0.00695      -   567    5s
   185    86 infeasible   32               -    0.00727      -   292   10s
   346   120    0.00816   13  146          -    0.00754      -   286   15s
   493   125    0.00870   26  156          -    0.00775      -   285   20s
   765    93    0.00967   14  183          -    0.00838      -   273   25s

Cutting planes:
  Learned: 5
  Gomory: 1
  Cover: 14
  Implied bound: 97
  Clique: 14
  MIR: 29
  Flow cover: 19
  GUB cover: 1
  Zero half: 3
  Network: 4
  RLT: 4
  Relax-and-lift: 45
  BQP: 3

Explored 846 nodes (250313 simplex iterations) in 26.00 seconds (56.45 work units)
Thread count was 1 (of 20 available processors)

Solution count 0

Time limit reached
Best objective -, best bound 8.921189412731e-03, gap -

User-callback calls 7583, time in user-callback 0.00 sec
